[[6, 2, 1, 5, 3, 4, 3, 5, 3, 3, 5, 2, 1, 2, 3, 4, 6, 2, 3, 6, 5, 2, 6, 1, 1, 1, 3, 1, 3, 6, 6, 3, 6, 4, 3], [5, 1, 2, 6, 1, 3, 1, 1, 1, 2, 2, 2, 6, 4, 6, 3, 6, 5, 2, 6, 1, 1], [5, 1, 2, 6, 2, 3, 4, 6, 2, 3, 6, 5, 2, 6, 1, 1, 3, 3, 4, 2, 6, 6, 6, 2, 1, 1, 5, 5], [5, 3, 6, 5, 2, 6, 1, 1, 1, 2, 6, 1, 3, 1, 3, 5, 3, 3, 5, 2, 1, 2, 3, 4, 6, 2], [6, 3, 5, 3, 3, 5, 2, 1, 3, 6, 5, 2, 6, 1, 1, 1, 2, 6, 2, 1, 5, 3, 4, 2, 2, 6, 4, 6, 3, 3, 4, 2, 6, 6, 6], [6, 2, 3, 4, 6, 2, 1, 1, 2, 3, 3, 4, 2, 6, 6, 6, 1, 2, 6, 3, 6, 5, 2, 6, 1, 1, 2, 1, 3, 4, 2], [5, 1, 6, 1, 2, 1, 3, 4, 2, 3, 3, 4, 2, 6, 6, 6, 3, 2, 6, 5, 1, 1, 6, 1, 3, 1], [5, 2, 3, 4, 6, 2, 3, 3, 4, 2, 6, 6, 6, 3, 6, 5, 2, 6, 1, 1, 1, 2, 6, 2, 2, 6, 4, 6], [6, 1, 6, 1, 2, 1, 1, 5, 5, 3, 6, 6, 3, 6, 4, 3, 1, 1, 2, 3, 3, 4, 2, 6, 6, 6, 2, 2, 6, 4, 6], [6, 2, 3, 4, 6, 2, 3, 3, 4, 2, 6, 6, 6, 3, 5, 3, 3, 5, 2, 1, 1, 6, 1, 2, 2, 6, 4, 6, 2, 1, 3, 4, 2], []]
[[1. 3. 5. 3. 2. 3. 6. 6. 2. 1. 3. 6. 3. 4.]----
 [2. 3. 1. 2. 4. 6. 2. 1. 0. 0. 0. 0. 0. 0.]
 [2. 3. 6. 6. 2. 1. 3. 2. 6. 1. 5. 0. 0. 0.]
 [6. 2. 1. 2. 3. 5. 3. 2. 3. 6. 0. 0. 0. 0.]
 [5. 3. 2. 6. 2. 1. 2. 1. 3. 2. 4. 3. 2. 6.]
 [3. 6. 1. 3. 2. 6. 2. 6. 2. 1. 1. 4. 0. 0.]
 [6. 1. 4. 3. 2. 6. 2. 5. 1. 3. 0. 0. 0. 0.]
 [3. 6. 3. 2. 6. 6. 2. 1. 2. 2. 4. 0. 0. 0.]
 [6. 1. 5. 6. 3. 4. 1. 3. 2. 6. 2. 4. 0. 0.]
 [3. 6. 3. 2. 6. 5. 3. 2. 6. 2. 4. 1. 4. 0.]] [[5. 4. 3. 5. 1. 4. 2. 5. 6. 1. 1. 6. 6. 3.]-------
 [6. 1. 2. 6. 6. 5. 6. 1. 0. 0. 0. 0. 0. 0.]
 [6. 4. 2. 5. 6. 1. 4. 6. 6. 1. 5. 0. 0. 0.]
 [5. 6. 1. 6. 1. 3. 5. 1. 4. 2. 0. 0. 0. 0.]
 [3. 5. 1. 5. 6. 1. 6. 5. 4. 6. 6. 4. 6. 6.]
 [4. 2. 2. 4. 6. 6. 6. 5. 6. 1. 3. 2. 0. 0.]
 [1. 3. 2. 4. 6. 6. 6. 1. 6. 1. 0. 0. 0. 0.]
 [4. 2. 4. 6. 6. 5. 6. 1. 6. 6. 6. 0. 0. 0.]
 [1. 1. 5. 6. 6. 3. 2. 4. 6. 6. 6. 6. 0. 0.]
 [4. 2. 4. 6. 6. 3. 5. 1. 1. 6. 6. 3. 2. 0.]] [[2, 3, 2, 3, 1, 3], [1, 1, 1, 2, 3], [1, 2, 3, 3, 2], [3, 1, 1, 3, 2], [3, 3, 1, 2, 2, 3], [2, 1, 3, 1, 3, 2], [1, 2, 3, 3, 1], [2, 3, 3, 1, 2], [1, 2, 3, 1, 3, 2], [2, 3, 3, 1, 2, 2]] [0, 0, 0, 0, 0, 0, 1, 1, 1, 1, 1, 2, 2, 2, 2, 2, 3, 3, 3, 3, 3, 4, 4, 4, 4, 4, 4, 5, 5, 5, 5, 5, 5, 6, 6, 6, 6, 6, 7, 7, 7, 7, 7, 8, 8, 8, 8, 8, 8, 9, 9, 9, 9, 9, 9] [[2, 5, 7, 10, 11, 14], [1, 2, 3, 5, 8], [1, 3, 6, 9, 11], [3, 4, 5, 8, 10], [3, 6, 7, 9, 11, 14], [2, 3, 6, 7, 10, 12], [1, 3, 6, 9, 10], [2, 5, 8, 9, 11], [1, 3, 6, 7, 10, 12], [2, 5, 8, 9, 11, 13]]
[[1. 3. 5. 3. 2. 3. 6. 6. 2. 1. 3. 6. 3. 4.]        [2, 5, 7, 10, 11, 14]
 [2. 3. 1. 2. 4. 6. 2. 1. 0. 0. 0. 0. 0. 0.]
 [2. 3. 6. 6. 2. 1. 3. 2. 6. 1. 5. 0. 0. 0.]
 [6. 2. 1. 2. 3. 5. 3. 2. 3. 6. 0. 0. 0. 0.]
 [5. 3. 2. 6. 2. 1. 2. 1. 3. 2. 4. 3. 2. 6.]
 [3. 6. 1. 3. 2. 6. 2. 6. 2. 1. 1. 4. 0. 0.]
 [6. 1. 4. 3. 2. 6. 2. 5. 1. 3. 0. 0. 0. 0.]
 [3. 6. 3. 2. 6. 6. 2. 1. 2. 2. 4. 0. 0. 0.]
 [6. 1. 5. 6. 3. 4. 1. 3. 2. 6. 2. 4. 0. 0.]
 [3. 6. 3. 2. 6. 5. 3. 2. 6. 2. 4. 1. 4. 0.]] [[5. 4. 3. 5. 1. 4. 2. 5. 6. 1. 1. 6. 6. 3.]
 [6. 1. 2. 6. 6. 5. 6. 1. 0. 0. 0. 0. 0. 0.]
 [6. 4. 2. 5. 6. 1. 4. 6. 6. 1. 5. 0. 0. 0.]
 [5. 6. 1. 6. 1. 3. 5. 1. 4. 2. 0. 0. 0. 0.]
 [3. 5. 1. 5. 6. 1. 6. 5. 4. 6. 6. 4. 6. 6.]
 [4. 2. 2. 4. 6. 6. 6. 5. 6. 1. 3. 2. 0. 0.]
 [1. 3. 2. 4. 6. 6. 6. 1. 6. 1. 0. 0. 0. 0.]
 [4. 2. 4. 6. 6. 5. 6. 1. 6. 6. 6. 0. 0. 0.]
 [1. 1. 5. 6. 6. 3. 2. 4. 6. 6. 6. 6. 0. 0.]
 [4. 2. 4. 6. 6. 3. 5. 1. 1. 6. 6. 3. 2. 0.]] [[2, 3, 2, 3, 1, 3], [1, 1, 1, 2, 3], [1, 2, 3, 3, 2], [3, 1, 1, 3, 2], [3, 3, 1, 2, 2, 3], [2, 1, 3, 1, 3, 2], [1, 2, 3, 3, 1], [2, 3, 3, 1, 2], [1, 2, 3, 1, 3, 2], [2, 3, 3, 1, 2, 2]] [0, 0, 0, 0, 0, 0, 1, 1, 1, 1, 1, 2, 2, 2, 2, 2, 3, 3, 3, 3, 3, 4, 4, 4, 4, 4, 4, 5, 5, 5, 5, 5, 5, 6, 6, 6, 6, 6, 7, 7, 7, 7, 7, 8, 8, 8, 8, 8, 8, 9, 9, 9, 9, 9, 9] [[2, 5, 7, 10, 11, 14], [1, 2, 3, 5, 8], [1, 3, 6, 9, 11], [3, 4, 5, 8, 10], [3, 6, 7, 9, 11, 14], [2, 3, 6, 7, 10, 12], [1, 3, 6, 9, 10], [2, 5, 8, 9, 11], [1, 3, 6, 7, 10, 12], [2, 5, 8, 9, 11, 13]]
